
******************************************************************************
This program contains Ipopt, a library for large-scale nonlinear optimization.
 Ipopt is released as open source code under the Eclipse Public License (EPL).
         For more information visit http://projects.coin-or.org/Ipopt
******************************************************************************

This is Ipopt version 3.12.6, running with linear solver ma57.

Number of nonzeros in equality constraint Jacobian...:        0
Number of nonzeros in inequality constraint Jacobian.:        2
Number of nonzeros in Lagrangian Hessian.............:        3

Total number of variables............................:        2
                     variables with only lower bounds:        1
                variables with lower and upper bounds:        0
                     variables with only upper bounds:        0
Total number of equality constraints.................:        0
Total number of inequality constraints...............:        1
        inequality constraints with only lower bounds:        0
   inequality constraints with lower and upper bounds:        0
        inequality constraints with only upper bounds:        1

iter    objective    inf_pr   inf_du lg(mu)  ||d||  lg(rg) alpha_du alpha_pr  ls
   0  9.9916352e-01 0.00e+00 1.22e+00  -1.0 0.00e+00    -  0.00e+00 0.00e+00   0
   1  1.9870584e-01 0.00e+00 1.44e-05  -1.0 4.82e-01    -  1.00e+00 1.00e+00f  1
   2  6.7783061e-02 0.00e+00 2.00e-07  -1.7 4.78e-01    -  1.00e+00 1.00e+00f  1
   3  4.6679878e-02 0.00e+00 2.83e-08  -2.5 5.57e-02    -  1.00e+00 1.00e+00f  1
   4  3.6081289e-02 0.00e+00 2.99e-03  -3.8 5.34e-02    -  9.48e-01 1.00e+00f  1
   5  3.4035027e-02 0.00e+00 1.50e-09  -3.8 1.28e-02    -  1.00e+00 1.00e+00f  1
   6  3.3790410e-02 0.00e+00 1.84e-11  -5.7 1.38e-03    -  1.00e+00 1.00e+00f  1
   7  3.3786988e-02 0.00e+00 2.51e-14  -8.6 1.99e-05    -  1.00e+00 1.00e+00f  1

Number of Iterations....: 7

                                   (scaled)                 (unscaled)
Objective...............:   3.3786988245532681e-02    3.3786988245532681e-02
Dual infeasibility......:   2.5083010907705041e-14    2.5083010907705041e-14
Constraint violation....:   0.0000000000000000e+00    0.0000000000000000e+00
Complementarity.........:   2.7964418476890374e-09    2.7964418476890374e-09
Overall NLP error.......:   2.7964418476890374e-09    2.7964418476890374e-09


Number of objective function evaluations             = 8
Number of objective gradient evaluations             = 8
Number of equality constraint evaluations            = 0
Number of inequality constraint evaluations          = 8
Number of equality constraint Jacobian evaluations   = 0
Number of inequality constraint Jacobian evaluations = 8
Number of Lagrangian Hessian evaluations             = 7
Total CPU secs in IPOPT (w/o function evaluations)   =      0.000
Total CPU secs in NLP function evaluations           =      0.000

EXIT: Optimal Solution Found.

************************ CUTEst statistics ************************


 Package used            :  IPOPT
 Problem                 :  LSQFIT    
 # variables             =               2
 # constraints           =               1
 # objective functions   =        0.1700000E+02
 # objective gradients   =        0.9000000E+01
 # objective Hessians    =        0.8000000E+01
 # Hessian-vector prdct  =        0.0000000E+00
 # constraints functions =        0.1800000E+02
 # constraints gradients =        0.1000000E+02
 # constraints Hessians  =        0.8000000E+01
 Exit code               =               0
 Final f                 =   0.3378699E-01
 Set up time             =            0.00 seconds
 Solve time              =            0.01 seconds


******************************************************************

System Time =       0.0030000000 s.
